
Gurobi 9.1.2 (linux64, gurobi_cl) logging started Fri Jul 30 13:54:06 2021

Using license file /opt/gurobi/gurobi.lic
Set parameter TimeLimit to value 600
Set parameter Cuts to value 2
Set parameter LogFile to value 912-Cuts2-glass4-0.log

Gurobi Optimizer version 9.1.2 build v9.1.2rc0 (linux64)
Copyright (c) 2021, Gurobi Optimization, LLC

Read MPS format model from file /nfs/models/mip/glass4.mps.bz2
Reading time = 0.00 seconds
glass4: 396 rows, 322 columns, 1815 nonzeros
Thread count: 4 physical cores, 8 logical processors, using up to 8 threads
Optimize a model with 396 rows, 322 columns and 1815 nonzeros
Model fingerprint: 0x0a9d9037
Variable types: 20 continuous, 302 integer (0 binary)
Coefficient statistics:
  Matrix range     [1e+00, 8e+06]
  Objective range  [1e+00, 1e+06]
  Bounds range     [1e+00, 8e+02]
  RHS range        [1e+00, 8e+06]
Presolve removed 6 rows and 6 columns
Presolve time: 0.00s
Presolved: 390 rows, 316 columns, 1803 nonzeros
Variable types: 19 continuous, 297 integer (297 binary)
Found heuristic solution: objective 3.133356e+09

Root relaxation: objective 8.000024e+08, 72 iterations, 0.00 seconds

    Nodes    |    Current Node    |     Objective Bounds      |     Work
 Expl Unexpl |  Obj  Depth IntInf | Incumbent    BestBd   Gap | It/Node Time

     0     0 8.0000e+08    0   72 3.1334e+09 8.0000e+08  74.5%     -    0s
H    0     0                    2.200019e+09 8.0000e+08  63.6%     -    0s
H    0     0                    2.000016e+09 8.0000e+08  60.0%     -    0s
     0     0 8.0000e+08    0   72 2.0000e+09 8.0000e+08  60.0%     -    0s
     0     0 8.0000e+08    0   72 2.0000e+09 8.0000e+08  60.0%     -    0s
     0     2 8.0000e+08    0   72 2.0000e+09 8.0000e+08  60.0%     -    0s
H   37    40                    2.000016e+09 8.0000e+08  60.0%  11.1    0s
H  145   189                    1.966683e+09 8.0000e+08  59.3%   4.7    0s
H 1057   898                    1.888905e+09 8.0000e+08  57.6%   6.0    0s
H 1060   855                    1.850016e+09 8.0000e+08  56.8%   6.0    0s
H 1135   865                    1.800016e+09 8.0000e+08  55.6%   8.8    0s
H 1150   831                    1.775016e+09 8.0000e+08  54.9%   9.1    0s
H 1194   808                    1.766682e+09 8.0000e+08  54.7%   9.3    0s
* 1641   987              65    1.700016e+09 8.0001e+08  52.9%  11.2    1s
H 2229  1110                    1.700015e+09 8.0001e+08  52.9%  12.8    1s
H 2230  1076                    1.700015e+09 8.0001e+08  52.9%  12.8    1s
H 3497  1794                    1.700015e+09 8.0001e+08  52.9%  15.1    2s
H 4212  2272                    1.700015e+09 8.0001e+08  52.9%  15.1    2s
H 4254  2006                    1.628588e+09 8.0001e+08  50.9%  15.1    2s
H 4402  2086                    1.600014e+09 8.0268e+08  49.8%  15.3    2s
H 4549  2155                    1.600014e+09 8.0268e+08  49.8%  15.6    3s
*11774  6689              35    1.600013e+09 8.5579e+08  46.5%  16.1    4s
 12912  7372 1.5000e+09   25   70 1.6000e+09 8.5665e+08  46.5%  16.6    5s
H19759 11630                    1.600013e+09 9.0001e+08  43.8%  16.8    6s
*22721 10421              58    1.575015e+09 9.0001e+08  42.9%  16.7    7s
*25413 10367              51    1.500013e+09 9.0001e+08  40.0%  16.4    7s
 32876 14581 1.1586e+09   28   59 1.5000e+09 1.0000e+09  33.3%  18.5   10s
*43853 12994              61    1.483348e+09 1.0000e+09  32.6%  19.4   13s
H44594 12822                    1.475015e+09 1.0000e+09  32.2%  19.5   14s
H44596 12822                    1.475015e+09 1.0000e+09  32.2%  19.5   14s
H44599 12051                    1.433349e+09 1.0000e+09  30.2%  19.5   14s
 44610 11810 1.1000e+09   37   66 1.4333e+09 1.0000e+09  30.2%  19.5   16s
*50538 11258              44    1.400013e+09 1.0000e+09  28.6%  20.5   17s
*50539 11257              44    1.400013e+09 1.0000e+09  28.6%  20.5   17s
 57083 11924 1.3333e+09   31   59 1.4000e+09 1.1000e+09  21.4%  22.1   20s
 71811 12682 1.4000e+09   35   50 1.4000e+09 1.2000e+09  14.3%  23.4   25s
*80624  8846              51    1.375015e+09 1.2000e+09  12.7%  23.8   28s
H82032  2360                    1.200013e+09 1.2000e+09  0.00%  23.8   29s

Cutting planes:
  Gomory: 77
  Cover: 621
  Implied bound: 239
  Projected implied bound: 5
  MIR: 48
  Flow cover: 413
  GUB cover: 1
  Inf proof: 78
  RLT: 46
  Relax-and-lift: 136

Explored 82445 nodes (1956283 simplex iterations) in 29.06 seconds
Thread count was 8 (of 8 available processors)

Solution count 10: 1.20001e+09 1.37501e+09 1.40001e+09 ... 1.57502e+09

Optimal solution found (tolerance 1.00e-04)
Best objective 1.200012600000e+09, best bound 1.200007743014e+09, gap 0.0004%
